50
120
99
95
95
94
91
90
89
84
82
81
78
78
77
73
72
69
62
60
59
58
56
56
52
52
51
48
48
47
47
45
43
42
38
32
32
31
28
28
28
26
23
21
20
18
14
12
8
3
2
1
